data;

param num_top:=5;

#nodes and edges of the physical network
param n := 7;

set E := (1,2) (1,7) (2,3) (2,6) (2,7) (3,4) (3,6) (4,5) (4,6) (5,6) (6,7) ;

#nodes and edges of the virtual networks
set Nl[1] := 7 5 4 2 6 ;
set Nl[2] := 6 1 3 2 5 ;
set Nl[3] := 2 7 6 1 3 ;
set Nl[4] := 4 7 3 2 5 ;
set Nl[5] := 5 2 7 4 6 ;

set El[1] := (5,7) (4,5) (2,4) (2,6) (6,7) (4,6) (5,6) (4,7) (2,5) (2,7) ;
set El[2] := (1,6) (1,3) (2,3) (2,5) (5,6) (2,6) (3,5) (1,5) (3,6) (1,2) ;
set El[3] := (2,7) (6,7) (1,6) (1,3) (2,3) (1,2) (3,7) (3,6) (2,6) (1,7) ;
set El[4] := (4,7) (3,7) (2,3) (2,5) (4,5) (3,5) (5,7) (2,4) (2,7) (3,4) ;
set El[5] := (2,5) (2,7) (4,7) (4,6) (5,6) (2,4) (4,5) (5,7) (6,7) (2,6) ;
